%BLOCK LATTICE_CART
	5.18392880	0.00000000	0.00000000
	0.00000000	5.18392880	0.00000000
	0.00000000	0.00000000	24.54937740
%ENDBLOCK LATTICE_CART

%BLOCK cell_constraints
	1	2	3
	0	0	0
%ENDBLOCK cell_constraints

%BLOCK POSITIONS_FRAC
	O	0.69572181	0.20536700	0.00000000
	O	0.29463300	0.79463300	0.00000000
	O	0.20536700	0.29463300	0.00000000
	O	0.79463300	0.70536700	0.00000000
	O	0.70536700	0.79463300	0.50000000
	O	0.29463300	0.20536700	0.50000000
	O	0.20536700	0.70536700	0.50000000
	O	0.79463300	0.29463300	0.50000000
	O	0.00000000	0.50000000	0.32948600
	O	0.50000000	0.00000000	0.67051400
	O	0.00000000	0.50000000	0.82948600
	O	0.50000000	0.00000000	0.17051400
	O	0.50000000	0.00000000	0.82948600
	O	0.00000000	0.50000000	0.17051400
	O	0.50000000	0.00000000	0.32948600
	O	0.00000000	0.50000000	0.67051400
	O	0.00000000	0.00000000	0.57949300
	O	0.00000000	0.00000000	0.42050700
	O	0.00000000	0.00000000	0.07949300
	O	0.00000000	0.00000000	0.92050700
	O	0.50000000	0.50000000	0.07949300
	O	0.50000000	0.50000000	0.92050700
	O	0.50000000	0.50000000	0.57949300
	O	0.50000000	0.50000000	0.42050700
	O	0.79465800	0.79465800	0.25000000
	O	0.20534200	0.20534200	0.25000000
	O	0.79465800	0.20534200	0.75000000
	O	0.20534200	0.79465800	0.75000000
	O	0.29465800	0.29465800	0.75000000
	O	0.70534200	0.70534200	0.75000000
	O	0.29465800	0.70534200	0.25000000
	O	0.70534200	0.29465800	0.25000000
	Ca	0.00000000	0.50000000	0.07487100	MIXTURE=(1 0.75)
	Ca	0.50000000	0.00000000	0.92512900	MIXTURE=(2 0.75)
	Ca	0.00000000	0.50000000	0.57487100	MIXTURE=(3 0.75)
	Ca	0.50000000	0.00000000	0.42512900	MIXTURE=(4 0.75)
	Ca	0.50000000	0.00000000	0.57487100	MIXTURE=(5 0.75)
	Ca	0.00000000	0.50000000	0.42512900	MIXTURE=(6 0.75)
	Ca	0.50000000	0.00000000	0.07487100	MIXTURE=(7 0.75)
	Ca	0.00000000	0.50000000	0.92512900	MIXTURE=(8 0.75)
	Ca	0.00000000	0.00000000	0.67513200	MIXTURE=(9 0.75)
	Ca	0.00000000	0.00000000	0.32486800	MIXTURE=(10 0.75)
	Ca	0.00000000	0.00000000	0.17513200	MIXTURE=(11 0.75)
	Ca	0.00000000	0.00000000	0.82486800	MIXTURE=(12 0.75)
	Ca	0.50000000	0.50000000	0.17513200	MIXTURE=(13 0.75)
	Ca	0.50000000	0.50000000	0.82486800	MIXTURE=(14 0.75)
	Ca	0.50000000	0.50000000	0.67513200	MIXTURE=(15 0.75)
	Ca	0.50000000	0.50000000	0.32486800	MIXTURE=(16 0.75)
	Ge	0.00000000	0.00000000	0.00000000
	Ge	0.00000000	0.00000000	0.50000000
	Ge	0.50000000	0.50000000	0.50000000
	Ge	0.50000000	0.50000000	0.00000000
	Ge	0.00000000	0.50000000	0.25000000
	Ge	0.50000000	0.00000000	0.75000000
	Ge	0.00000000	0.50000000	0.75000000
	Ge	0.50000000	0.00000000	0.25000000
	Sr	0.00000000	0.50000000	0.07487100	MIXTURE=(1 0.25)
	Sr	0.50000000	0.00000000	0.92512900	MIXTURE=(2 0.25)
	Sr	0.00000000	0.50000000	0.57487100	MIXTURE=(3 0.25)
	Sr	0.50000000	0.00000000	0.42512900	MIXTURE=(4 0.25)
	Sr	0.50000000	0.00000000	0.57487100	MIXTURE=(5 0.25)
	Sr	0.00000000	0.50000000	0.42512900	MIXTURE=(6 0.25)
	Sr	0.50000000	0.00000000	0.07487100	MIXTURE=(7 0.25)
	Sr	0.00000000	0.50000000	0.92512900	MIXTURE=(8 0.25)
	Sr	0.00000000	0.00000000	0.67513200	MIXTURE=(9 0.25)
	Sr	0.00000000	0.00000000	0.32486800	MIXTURE=(10 0.25)
	Sr	0.00000000	0.00000000	0.17513200	MIXTURE=(11 0.25)
	Sr	0.00000000	0.00000000	0.82486800	MIXTURE=(12 0.25)
	Sr	0.50000000	0.50000000	0.17513200	MIXTURE=(13 0.25)
	Sr	0.50000000	0.50000000	0.82486800	MIXTURE=(14 0.25)
	Sr	0.50000000	0.50000000	0.67513200	MIXTURE=(15 0.25)
	Sr	0.50000000	0.50000000	0.32486800	MIXTURE=(16 0.25)
%ENDBLOCK POSITIONS_FRAC

kpoints_mp_grid = 5 5 1
kpoints_mp_offset = 0.1 0.1 0.5

%block species_pot
	Ca Ca_OTF_E1650_PBEsol_NC.usp
	Ge Ge_OTF_E1650_PBEsol_NC.usp
	O O_OTF_E1650_PBEsol_NC.usp
	Sr Sr_OTF_E1650_PBEsol_NC.usp
%endblock species_pot

symmetry_generate

snap_to_symmetry

%BLOCK external_pressure
	GPA
	4.30000000	0.00000000	0.00000000
			4.30000000	0.00000000
					0.00000000
%ENDBLOCK external_pressure

