%BLOCK LATTICE_CART
	5.49931150	0.00000000	0.00000000
	0.00000000	5.42630430	0.00000000
	0.00000000	0.00000000	19.49687900
%ENDBLOCK LATTICE_CART

%BLOCK cell_constraints
	1	2	3
	0	0	0
%ENDBLOCK cell_constraints

%BLOCK POSITIONS_FRAC
	O	0.18642400	0.25000000	0.00000000
	O	0.81357600	0.75000000	0.00000000
	O	0.68642400	0.25000000	0.50000000
	O	0.31357600	0.75000000	0.50000000
	O	0.30534100	0.25000000	0.80261200
	O	0.69465900	0.75000000	0.80261200
	O	0.30534100	0.25000000	0.19738800
	O	0.69465900	0.75000000	0.19738800
	O	0.80534100	0.25000000	0.30261200
	O	0.19465900	0.75000000	0.30261200
	O	0.80534100	0.25000000	0.69738800
	O	0.19465900	0.75000000	0.69738800
	O	0.00000000	0.00000000	0.41388200
	O	0.00000000	0.50000000	0.58611800
	O	0.00000000	0.00000000	0.58611800
	O	0.00000000	0.50000000	0.41388200
	O	0.50000000	0.00000000	0.91388200
	O	0.50000000	0.50000000	0.08611800
	O	0.50000000	0.00000000	0.08611800
	O	0.50000000	0.50000000	0.91388200
	O	0.00000000	0.00000000	0.10999300
	O	0.00000000	0.50000000	0.89000700
	O	0.00000000	0.00000000	0.89000700
	O	0.00000000	0.50000000	0.10999300
	O	0.50000000	0.00000000	0.60999300
	O	0.50000000	0.50000000	0.39000700
	O	0.50000000	0.00000000	0.39000700
	O	0.50000000	0.50000000	0.60999300
	Ca	0.74621500	0.25000000	0.00000000
	Ca	0.25378500	0.75000000	0.00000000
	Ca	0.24621500	0.25000000	0.50000000
	Ca	0.75378500	0.75000000	0.50000000
	Ca	0.23662000	0.25000000	0.68550500
	Ca	0.76338000	0.75000000	0.68550500
	Ca	0.23662000	0.25000000	0.31449500
	Ca	0.76338000	0.75000000	0.31449500
	Ca	0.73662000	0.25000000	0.18550500
	Ca	0.26338000	0.75000000	0.18550500
	Ca	0.73662000	0.25000000	0.81449500
	Ca	0.26338000	0.75000000	0.81449500
	Ti	0.24778400	0.25000000	0.90052000
	Ti	0.75221600	0.75000000	0.90052000
	Ti	0.24778400	0.25000000	0.09948000
	Ti	0.75221600	0.75000000	0.09948000
	Ti	0.74778400	0.25000000	0.40052000
	Ti	0.25221600	0.75000000	0.40052000
	Ti	0.74778400	0.25000000	0.59948000
	Ti	0.25221600	0.75000000	0.59948000
%ENDBLOCK POSITIONS_FRAC

kpoints_mp_grid = 5 5 1
kpoints_mp_offset = 0.1 0.1 0.5

%block species_pot
	Ca Ca_OTF_E1650_PBEsol_NC.usp
	Sr Sr_OTF_E1650_PBEsol_NC.usp
	O O_OTF_E1650_PBEsol_NC.usp
	Ti Ti_OTF_E1650_PBEsol_NC.usp
%endblock species_pot

symmetry_generate

snap_to_symmetry

