%BLOCK LATTICE_CART
	5.45187540	0.00000000	0.00000000
	0.00000000	5.45187540	0.00000000
	0.00000000	0.00000000	19.03878440
%ENDBLOCK LATTICE_CART

%BLOCK cell_constraints
	1	2	3
	0	0	0
%ENDBLOCK cell_constraints

%BLOCK POSITIONS_FRAC
	O	0.69093600	0.30906400	0.00000000
	O	0.19093600	0.19093600	0.50000000
	O	0.80906400	0.80906400	0.50000000
	O	0.30906400	0.69093600	0.00000000
	O	0.69883900	0.69883900	0.30063100
	O	0.19883900	0.80116100	0.19936900
	O	0.80116100	0.19883900	0.19936900
	O	0.30116100	0.30116100	0.30063100
	O	0.30116100	0.30116100	0.69936900
	O	0.80116100	0.19883900	0.80063100
	O	0.19883900	0.80116100	0.80063100
	O	0.69883900	0.69883900	0.69936900
	O	0.00000000	0.50000000	0.40203600
	O	0.50000000	0.00000000	0.09796400
	O	0.50000000	0.00000000	0.59796400
	O	0.00000000	0.50000000	0.90203600
	O	0.00000000	0.50000000	0.59796400
	O	0.50000000	0.00000000	0.90203600
	O	0.50000000	0.00000000	0.40203600
	O	0.00000000	0.50000000	0.09796400
	O	0.00000000	0.00000000	0.92061500
	O	0.50000000	0.50000000	0.57938500
	O	0.00000000	0.00000000	0.07938500
	O	0.50000000	0.50000000	0.42061500
	O	0.00000000	0.00000000	0.62200300
	O	0.50000000	0.50000000	0.87799700
	O	0.00000000	0.00000000	0.37799700
	O	0.50000000	0.50000000	0.12200300
	Ca	0.75041600	0.75041600	0.00000000	MIXTURE=(1 0.5)
	Ca	0.25041600	0.74958400	0.50000000	MIXTURE=(2 0.5)
	Ca	0.74958400	0.25041600	0.50000000	MIXTURE=(3 0.5)
	Ca	0.24958400	0.24958400	0.00000000	MIXTURE=(4 0.5)
	Ca	0.76908900	0.76908900	0.18608000	MIXTURE=(5 0.5)
	Ca	0.26908900	0.73091100	0.31392000	MIXTURE=(6 0.5)
	Ca	0.73091100	0.26908900	0.31392000	MIXTURE=(7 0.5)
	Ca	0.23091100	0.23091100	0.18608000	MIXTURE=(8 0.5)
	Ca	0.23091100	0.23091100	0.81392000	MIXTURE=(9 0.5)
	Ca	0.73091100	0.26908900	0.68608000	MIXTURE=(10 0.5)
	Ca	0.26908900	0.73091100	0.68608000	MIXTURE=(11 0.5)
	Ca	0.76908900	0.76908900	0.81392000	MIXTURE=(12 0.5)
	Ti	0.75344800	0.75344800	0.39937500
	Ti	0.25344800	0.74655200	0.10062500
	Ti	0.74655200	0.25344800	0.10062500
	Ti	0.24655200	0.24655200	0.39937500
	Ti	0.24655200	0.24655200	0.60062500
	Ti	0.74655200	0.25344800	0.89937500
	Ti	0.25344800	0.74655200	0.89937500
	Ti	0.75344800	0.75344800	0.60062500
	Sr	0.75041600	0.75041600	0.00000000	MIXTURE=(1 0.5)
	Sr	0.25041600	0.74958400	0.50000000	MIXTURE=(2 0.5)
	Sr	0.74958400	0.25041600	0.50000000	MIXTURE=(3 0.5)
	Sr	0.24958400	0.24958400	0.00000000	MIXTURE=(4 0.5)
	Sr	0.76908900	0.76908900	0.18608000	MIXTURE=(5 0.5)
	Sr	0.26908900	0.73091100	0.31392000	MIXTURE=(6 0.5)
	Sr	0.73091100	0.26908900	0.31392000	MIXTURE=(7 0.5)
	Sr	0.23091100	0.23091100	0.18608000	MIXTURE=(8 0.5)
	Sr	0.23091100	0.23091100	0.81392000	MIXTURE=(9 0.5)
	Sr	0.73091100	0.26908900	0.68608000	MIXTURE=(10 0.5)
	Sr	0.26908900	0.73091100	0.68608000	MIXTURE=(11 0.5)
	Sr	0.76908900	0.76908900	0.81392000	MIXTURE=(12 0.5)
%ENDBLOCK POSITIONS_FRAC

kpoints_mp_grid = 5 5 1
kpoints_mp_offset = 0.1 0.1 0.5

%block species_pot
	Ca Ca_OTF_E1650_PBEsol_NC.usp
	Sr Sr_OTF_E1650_PBEsol_NC.usp
	O O_OTF_E1650_PBEsol_NC.usp
	Ti Ti_OTF_E1650_PBEsol_NC.usp
%endblock species_pot

symmetry_generate

snap_to_symmetry

